(set-logic QF_NRA)
(set-info :source |Benchmarks generated from hycomp (https://es-static.fbk.eu/tools/hycomp/). BMC instances of non-linear hybrid automata taken from: Alessandro Cimatti, Sergio Mover, Stefano Tonetta, A quantifier-free SMT encoding of non-linear hybrid automata, FMCAD 2012 and Alessandro Cimatti, Sergio Mover, Stefano Tonetta, Quantier-free encoding of invariants for Hybrid Systems, Formal Methods in System Design. This instance solves a BMC problem of depth 1 and uses the encoding obtained with quantifier elimination using qepcad encoding. Contacts: Sergio Mover (mover@fbk.eu), Stefano Tonetta (tonettas@fbk.eu), Alessandro Cimatti (cimatti@fbk.eu).|)
(set-info :smt-lib-version 2.0)
(set-info :category "industrial")
(set-info :status unsat)
;; MathSAT API call trace
;; generated on Mon Mar 19 10:38:31 2012
(declare-fun b.counter.1__AT0 () Bool)
(declare-fun b.counter.3__AT0 () Bool)
(declare-fun b.delta__AT1 () Real)
(declare-fun b.EVENT.0__AT1 () Bool)
(declare-fun b.EVENT.1__AT1 () Bool)
(declare-fun b.EVENT.0__AT0 () Bool)
(declare-fun b.speed_y__AT1 () Real)
(declare-fun b.event_is_timed__AT1 () Bool)
(declare-fun speed_loss__AT0 () Real)
(declare-fun b.counter.1__AT1 () Bool)
(declare-fun b.counter.2__AT1 () Bool)
(declare-fun b.counter.2__AT0 () Bool)
(declare-fun b.time__AT0 () Real)
(declare-fun b.speed_y__AT0 () Real)
(declare-fun b.EVENT.1__AT0 () Bool)
(declare-fun b.time__AT1 () Real)
(declare-fun b.y__AT1 () Real)
(declare-fun b.counter.0__AT1 () Bool)
(declare-fun b.delta__AT0 () Real)
(declare-fun b.counter.3__AT1 () Bool)
(declare-fun b.y__AT0 () Real)
(declare-fun b.event_is_timed__AT0 () Bool)
(declare-fun b.counter.0__AT0 () Bool)
(assert (let ((.def_239 (* 49.0 b.delta__AT1)))
(let ((.def_240 (* b.delta__AT1 .def_239)))
(let ((.def_241 (* (- 1.0) .def_240)))
(let ((.def_237 (* 10.0 b.delta__AT1)))
(let ((.def_238 (* b.speed_y__AT1 .def_237)))
(let ((.def_242 (+ .def_238 .def_241)))
(let ((.def_243 (* 10.0 b.y__AT1)))
(let ((.def_245 (+ .def_243 .def_242)))
(let ((.def_246 (<= 0.0 .def_245)))
(let ((.def_223 (<= 0.0 b.y__AT1)))
(let ((.def_247 (and .def_223 .def_246)))
(let ((.def_235 (<= 0.0 b.delta__AT1)))
(let ((.def_236 (not .def_235)))
(let ((.def_248 (or .def_236 .def_247)))
(let ((.def_220 (not b.EVENT.0__AT1)))
(let ((.def_218 (not b.EVENT.1__AT1)))
(let ((.def_232 (and .def_218 .def_220)))
(let ((.def_233 (not .def_232)))
(let ((.def_249 (or .def_233 .def_248)))
(let ((.def_32 (not b.counter.0__AT0)))
(let ((.def_30 (not b.counter.1__AT0)))
(let ((.def_33 (and .def_30 .def_32)))
(let ((.def_228 (or .def_33 b.counter.3__AT0)))
(let ((.def_38 (not b.counter.3__AT0)))
(let ((.def_35 (not b.counter.2__AT0)))
(let ((.def_36 (and .def_33 .def_35)))
(let ((.def_227 (or .def_36 .def_38)))
(let ((.def_229 (and .def_227 .def_228)))
(let ((.def_60 (<= speed_loss__AT0 (/ 1 2))))
(let ((.def_57 (<= (/ 1 10) speed_loss__AT0)))
(let ((.def_61 (and .def_57 .def_60)))
(let ((.def_224 (and .def_61 .def_223)))
(let ((.def_221 (or .def_218 .def_220)))
(let ((.def_6 (not b.counter.0__AT1)))
(let ((.def_4 (not b.counter.1__AT1)))
(let ((.def_211 (or .def_4 .def_6)))
(let ((.def_215 (or b.counter.3__AT1 .def_211)))
(let ((.def_212 (or b.counter.2__AT1 .def_211)))
(let ((.def_9 (not b.counter.2__AT1)))
(let ((.def_210 (or .def_6 .def_9)))
(let ((.def_213 (and .def_210 .def_212)))
(let ((.def_12 (not b.counter.3__AT1)))
(let ((.def_214 (or .def_12 .def_213)))
(let ((.def_216 (and .def_214 .def_215)))
(let ((.def_222 (and .def_216 .def_221)))
(let ((.def_225 (and .def_222 .def_224)))
(let ((.def_70 (<= 0.0 b.delta__AT0)))
(let ((.def_51 (not b.EVENT.0__AT0)))
(let ((.def_49 (not b.EVENT.1__AT0)))
(let ((.def_67 (and .def_49 .def_51)))
(let ((.def_68 (not .def_67)))
(let ((.def_206 (or .def_68 .def_70)))
(let ((.def_207 (or b.EVENT.1__AT0 .def_206)))
(let ((.def_136 (= b.counter.0__AT1 b.counter.0__AT0)))
(let ((.def_134 (= b.counter.1__AT1 b.counter.1__AT0)))
(let ((.def_132 (= b.counter.2__AT1 b.counter.2__AT0)))
(let ((.def_131 (= b.counter.3__AT1 b.counter.3__AT0)))
(let ((.def_133 (and .def_131 .def_132)))
(let ((.def_135 (and .def_133 .def_134)))
(let ((.def_137 (and .def_135 .def_136)))
(let ((.def_203 (or .def_68 .def_137)))
(let ((.def_204 (or b.EVENT.1__AT0 .def_203)))
(let ((.def_191 (* (- 5.0) b.speed_y__AT1)))
(let ((.def_192 (* (- 49.0) b.delta__AT0)))
(let ((.def_196 (+ .def_192 .def_191)))
(let ((.def_194 (* 5.0 b.speed_y__AT0)))
(let ((.def_197 (+ .def_194 .def_196)))
(let ((.def_198 (= .def_197 0.0 )))
(let ((.def_179 (* b.speed_y__AT0 b.delta__AT0)))
(let ((.def_180 (* 10.0 .def_179)))
(let ((.def_176 (* b.delta__AT0 b.delta__AT0)))
(let ((.def_178 (* (- 49.0) .def_176)))
(let ((.def_181 (+ .def_178 .def_180)))
(let ((.def_183 (* (- 10.0) b.y__AT1)))
(let ((.def_186 (+ .def_183 .def_181)))
(let ((.def_80 (* 10.0 b.y__AT0)))
(let ((.def_187 (+ .def_80 .def_186)))
(let ((.def_188 (= .def_187 0.0 )))
(let ((.def_199 (and .def_188 .def_198)))
(let ((.def_200 (or .def_68 .def_199)))
(let ((.def_142 (= b.y__AT0 b.y__AT1)))
(let ((.def_130 (= b.speed_y__AT0 b.speed_y__AT1)))
(let ((.def_173 (and .def_130 .def_142)))
(let ((.def_170 (= b.delta__AT0 0.0 )))
(let ((.def_171 (and .def_67 .def_170)))
(let ((.def_172 (not .def_171)))
(let ((.def_174 (or .def_172 .def_173)))
(let ((.def_175 (or b.EVENT.1__AT0 .def_174)))
(let ((.def_201 (and .def_175 .def_200)))
(let ((.def_152 (= b.time__AT0 b.time__AT1)))
(let ((.def_164 (and .def_142 .def_152)))
(let ((.def_165 (and .def_130 .def_164)))
(let ((.def_166 (and .def_137 .def_165)))
(let ((.def_167 (or .def_49 .def_166)))
(let ((.def_155 (* (- 1.0) b.time__AT1)))
(let ((.def_158 (+ b.delta__AT0 .def_155)))
(let ((.def_159 (+ b.time__AT0 .def_158)))
(let ((.def_160 (= .def_159 0.0 )))
(let ((.def_161 (or .def_68 .def_160)))
(let ((.def_162 (or b.EVENT.1__AT0 .def_161)))
(let ((.def_153 (or .def_67 .def_152)))
(let ((.def_154 (or b.EVENT.1__AT0 .def_153)))
(let ((.def_163 (and .def_154 .def_162)))
(let ((.def_168 (and .def_163 .def_167)))
(let ((.def_148 (= .def_68 b.event_is_timed__AT1)))
(let ((.def_146 (= b.event_is_timed__AT0 .def_67)))
(let ((.def_149 (and .def_146 .def_148)))
(let ((.def_138 (and .def_130 .def_137)))
(let ((.def_89 (<= 0.0 b.speed_y__AT0)))
(let ((.def_90 (not .def_89)))
(let ((.def_88 (= b.y__AT0 0.0 )))
(let ((.def_91 (and .def_88 .def_90)))
(let ((.def_139 (or .def_91 .def_138)))
(let ((.def_107 (or .def_6 b.counter.0__AT0)))
(let ((.def_106 (or b.counter.0__AT1 .def_32)))
(let ((.def_108 (and .def_106 .def_107)))
(let ((.def_109 (and .def_4 .def_108)))
(let ((.def_110 (or b.counter.1__AT0 .def_109)))
(let ((.def_105 (or b.counter.1__AT1 .def_30)))
(let ((.def_111 (and .def_105 .def_110)))
(let ((.def_122 (and .def_9 .def_111)))
(let ((.def_123 (or b.counter.2__AT0 .def_122)))
(let ((.def_117 (and .def_4 .def_32)))
(let ((.def_118 (or b.counter.1__AT0 .def_117)))
(let ((.def_119 (and .def_105 .def_118)))
(let ((.def_120 (and b.counter.2__AT1 .def_119)))
(let ((.def_121 (or .def_35 .def_120)))
(let ((.def_124 (and .def_121 .def_123)))
(let ((.def_125 (and b.counter.3__AT1 .def_124)))
(let ((.def_126 (or b.counter.3__AT0 .def_125)))
(let ((.def_112 (and b.counter.2__AT1 .def_111)))
(let ((.def_113 (or b.counter.2__AT0 .def_112)))
(let ((.def_101 (or b.counter.1__AT1 b.counter.1__AT0)))
(let ((.def_99 (and .def_4 b.counter.0__AT1)))
(let ((.def_100 (or .def_30 .def_99)))
(let ((.def_102 (and .def_100 .def_101)))
(let ((.def_103 (and .def_9 .def_102)))
(let ((.def_104 (or .def_35 .def_103)))
(let ((.def_114 (and .def_104 .def_113)))
(let ((.def_115 (and .def_12 .def_114)))
(let ((.def_116 (or .def_38 .def_115)))
(let ((.def_127 (and .def_116 .def_126)))
(let ((.def_94 (* (- 1.0) speed_loss__AT0)))
(let ((.def_95 (+ 1.0 .def_94)))
(let ((.def_93 (* (- 1.0) b.speed_y__AT0)))
(let ((.def_96 (* .def_93 .def_95)))
(let ((.def_98 (= .def_96 b.speed_y__AT1)))
(let ((.def_128 (and .def_98 .def_127)))
(let ((.def_92 (not .def_91)))
(let ((.def_129 (or .def_92 .def_128)))
(let ((.def_140 (and .def_129 .def_139)))
(let ((.def_143 (and .def_140 .def_142)))
(let ((.def_144 (or .def_67 .def_143)))
(let ((.def_145 (or b.EVENT.1__AT0 .def_144)))
(let ((.def_150 (and .def_145 .def_149)))
(let ((.def_169 (and .def_150 .def_168)))
(let ((.def_202 (and .def_169 .def_201)))
(let ((.def_205 (and .def_202 .def_204)))
(let ((.def_208 (and .def_205 .def_207)))
(let ((.def_209 (and .def_49 .def_208)))
(let ((.def_226 (and .def_209 .def_225)))
(let ((.def_230 (and .def_226 .def_229)))
(let ((.def_75 (* 49.0 b.delta__AT0)))
(let ((.def_76 (* b.delta__AT0 .def_75)))
(let ((.def_78 (* (- 1.0) .def_76)))
(let ((.def_72 (* 10.0 b.delta__AT0)))
(let ((.def_73 (* b.speed_y__AT0 .def_72)))
(let ((.def_79 (+ .def_73 .def_78)))
(let ((.def_82 (+ .def_80 .def_79)))
(let ((.def_83 (<= 0.0 .def_82)))
(let ((.def_62 (<= 0.0 b.y__AT0)))
(let ((.def_84 (and .def_62 .def_83)))
(let ((.def_71 (not .def_70)))
(let ((.def_85 (or .def_71 .def_84)))
(let ((.def_86 (or .def_68 .def_85)))
(let ((.def_63 (and .def_61 .def_62)))
(let ((.def_52 (or .def_49 .def_51)))
(let ((.def_42 (or .def_30 .def_32)))
(let ((.def_46 (or b.counter.3__AT0 .def_42)))
(let ((.def_43 (or b.counter.2__AT0 .def_42)))
(let ((.def_41 (or .def_32 .def_35)))
(let ((.def_44 (and .def_41 .def_43)))
(let ((.def_45 (or .def_38 .def_44)))
(let ((.def_47 (and .def_45 .def_46)))
(let ((.def_53 (and .def_47 .def_52)))
(let ((.def_64 (and .def_53 .def_63)))
(let ((.def_39 (and .def_36 .def_38)))
(let ((.def_27 (= b.speed_y__AT0 0.0 )))
(let ((.def_24 (= b.y__AT0 10.0 )))
(let ((.def_19 (= b.time__AT0 0.0 )))
(let ((.def_21 (and .def_19 b.event_is_timed__AT0)))
(let ((.def_25 (and .def_21 .def_24)))
(let ((.def_28 (and .def_25 .def_27)))
(let ((.def_40 (and .def_28 .def_39)))
(let ((.def_65 (and .def_40 .def_64)))
(let ((.def_7 (and .def_4 .def_6)))
(let ((.def_14 (or .def_7 b.counter.3__AT1)))
(let ((.def_10 (and .def_7 .def_9)))
(let ((.def_13 (or .def_10 .def_12)))
(let ((.def_15 (and .def_13 .def_14)))
(let ((.def_16 (not .def_15)))
(let ((.def_66 (and .def_16 .def_65)))
(let ((.def_87 (and .def_66 .def_86)))
(let ((.def_231 (and .def_87 .def_230)))
(let ((.def_250 (and .def_231 .def_249)))
.def_250))))))))))))))))))))))))))))))))))))))))))))))))))))))))))))))))))))))))))))))))))))))))))))))))))))))))))))))))))))))))))))))))))))))))))))))))))))))))))))))))))))))))))))))))))))))))))))))))))))))))))))))
(check-sat)
(exit)
